29 29
24
3 3 0 0
3 4 6 0
3 5 9 0
3 6 9 5
3 7 17 22
3 8 0 3
3 9 3 20
3 10 6 4
3 11 13 11
3 15 6 14
3 18 0 11
3 20 3 0
4 3 13 22
4 4 13 25
4 5 12 0
4 6 12 5
4 7 16 0
4 9 25 0
4 15 16 7
4 18 9 11
4 20 25 9
5 4 20 25
5 8 20 0
5 17 20 8
